POSCAR generated by DeepH-dock 
1.0
  0.0 2.2727882138539277 2.2727882138539277
  2.2727882138539277 0.0 2.2727882138539277
  2.2727882138539277 2.2727882138539277 0.0
N Ga
1 1
Cartesian
  1.1363941069269639 1.1363941069269639 1.1363941069269639
  0.0 0.0 0.0
