POSCAR generated by HPRO
1.0
    9.59999999     0.00000000     0.00000000
    0.00000000    13.49999999     0.00000000
    0.00000000     0.00000000    19.99999999
P
72
Direct
    0.00246288     0.00273676     0.31097187
    0.99169006     0.32833507     0.31876701
    0.99133556     0.67275448     0.31442230
    0.33752019     0.00477833     0.31208358
    0.32443256     0.33999704     0.31409249
    0.34003875     0.67001066     0.31930146
    0.67096338     0.00168023     0.31442732
    0.65794477     0.33212212     0.31278865
    0.65801745     0.67307746     0.31583514
    0.01013832     0.06747625     0.41740146
    0.99738064     0.38864891     0.41575863
    0.99730504     0.72170296     0.41628880
    0.33984999     0.06022291     0.41628046
    0.34265101     0.39998720     0.41651903
    0.34345836     0.73593865     0.41638827
    0.67194538     0.05687407     0.42140875
    0.66408874     0.39678094     0.41681880
    0.65798960     0.72695517     0.41845667
    0.17244056     0.17362836     0.42396788
    0.16788342     0.50506843     0.41973962
    0.16508796     0.83834561     0.42167558
    0.50846572     0.16620286     0.41672320
    0.49189995     0.49873807     0.41692289
    0.49984636     0.82997640     0.41540869
    0.82315320     0.16009445     0.41668935
    0.83268043     0.50540329     0.41778590
    0.82408965     0.83796890     0.41677010
    0.15872537     0.23612297     0.31038816
    0.15869846     0.56941066     0.31070749
    0.16977521     0.89620762     0.31410892
    0.50512593     0.23270474     0.31156447
    0.50173685     0.56864220     0.31314383
    0.50962859     0.90056637     0.31453531
    0.83072647     0.22497675     0.31640508
    0.82886900     0.56132040     0.30989426
    0.84101248     0.88989248     0.31749524
    0.16090825     0.04006002     0.59053242
    0.17631714     0.36823962     0.58507100
    0.15650322     0.69597989     0.59298920
    0.50978914     0.03587705     0.59346214
    0.49048250     0.36841671     0.58486419
    0.50814881     0.69789871     0.58702219
    0.83391044     0.02760826     0.59231543
    0.84360343     0.36920849     0.59173601
    0.82445410     0.70030085     0.58609862
    0.16778863     0.09942076     0.69184577
    0.17644380     0.42901846     0.69345700
    0.16714787     0.76727058     0.69459751
    0.50269580     0.09615540     0.69593483
    0.50407810     0.42962253     0.69344142
    0.49905294     0.76763313     0.69437763
    0.83599079     0.09395653     0.69722699
    0.83508988     0.42329775     0.69011911
    0.84169079     0.75507208     0.69227665
    0.99053013     0.20377981     0.69688578
    0.99543673     0.53511570     0.69870435
    0.00938357     0.86969007     0.69486905
    0.34146383     0.19574762     0.69507341
    0.33240952     0.52794624     0.69082400
    0.33583610     0.85947474     0.69422640
    0.66202877     0.19778648     0.69507845
    0.66016919     0.53466545     0.69217698
    0.66591038     0.86507028     0.69244471
    0.99694484     0.26112678     0.58802626
    0.00174284     0.60137395     0.58445413
    0.99120280     0.92647168     0.58747421
    0.34321656     0.26226033     0.58636789
    0.34346272     0.59958868     0.58752839
    0.33746170     0.92718705     0.58545104
    0.66741867     0.26386177     0.59315869
    0.66269849     0.60075476     0.59018934
    0.67320406     0.93537931     0.59104444
