POSCAR generated by DeepH-dock 
1.0
  0.0 2.1060001515493827 2.1060001515493827
  2.1060001515493827 0.0 2.1060001515493827
  2.1060001515493827 2.1060001515493827 0.0
Mg O
1 1
Cartesian
  0.0 0.0 0.0
  2.106 0.0 0.0
