POSCAR generated by DeepH-dock 
1.0
  31.7 0.0 0.0
  0.0 30.3 0.0
  0.0 0.0 30.4
O H
1 2
Cartesian
  0.0 0.5 0.0
  -1.1 0.2 0.2
  0.6 0.5 0.4
